c 
p cnf 10 40
1 -4 -6 0
-8 4 9 0
9 7 0
10 4 3 9 0
-5 0
-9 1 8 3 2 0
-8 1 9 -6 10 0
-6 0
6 -9 2 -1 0
6 10 -4 5 0
8 0
8 -6 3 -2 0
-8 -7 6 -10 -4 0
-10 0
-4 0
-6 0
1 10 4 0
-10 -8 3 0
4 0
-7 0
3 -5 2 9 6 0
-4 0
1 0
-5 0
10 0
-10 -3 9 0
1 -3 -10 7 -2 0
3 0
-6 -5 2 -7 0
-9 2 -7 -5 0
8 0
-6 -2 0
7 2 0
-8 -1 10 4 0
7 -4 -10 3 9 0
10 3 0
-9 6 -10 0
-8 10 -5 0
1 0
-1 -9 6 -10 0
